 $ZMAT DLC=.T. AUTO=.T. $END
 $ZMAT IFZMAT(1)=3, 14 , 5 , 1 , 2  FVALUE(1)= 85.0 $END
 $CONTRL COORD=UNIQUE NZVAR= 36 $END
 $CONTRL MULT=1 ICHARG=0 ICUT=11 RUNTYP=OPTIMIZE 
      SCFTYP=RHF MPLEVL=2 MAXIT=200 ISPHER=1 $END
 $BASIS  GBASIS=CCT $END
 $STATPT NSTEP=200 OPTTOL=0.00001 $END
 $SYSTEM MWORDS=300 MEMDDI=300 $END
 $SCF    DIRSCF=.T. FDIFF=.F. $END
 $TRANS  DIRTRF=.T. $END
 $DATA
 OPMMM 
 C1
 P 15.0 -0.0585378311 0.0363841126 -0.0218046042
 O 8.0 -0.648785844413 1.31951879988 0.0716014351358
 C 6.0 -0.93106600595 -1.15789562544 -1.13751448536
 C 6.0 -0.00900663155394 -0.932288848288 1.55459009296
 C 6.0 1.652435871 0.0059507933 -0.6052671243
 H 1.0 -1.9619342998 -1.25864101842 -0.803198233762
 H 1.0 -0.463944871727 -2.14069496246 -1.17071713463
 H 1.0 -0.934149399472 -0.725108981722 -2.13616103846
 H 1.0 0.574979843293 -0.355930931927 2.26969900893
 H 1.0 0.430950670595 -1.92175196516 1.44234201523
 H 1.0 -1.02328962337 -1.02887864734 1.93735098718
 H 1.0 2.1596696339 -0.851151005 -0.1662927129
 H 1.0 2.1553335643 0.9114595235 -0.2709695649
 H 1.0 1.7070381238 -0.0583748167 -1.6906617242
 $END
