 $ZMAT DLC=.T. AUTO=.T. $END
 $ZMAT IFZMAT(1)=3, 14 , 5 , 1 , 2  FVALUE(1)= 125.0 $END
 $CONTRL COORD=UNIQUE NZVAR= 36 $END
 $CONTRL MULT=1 ICHARG=0 ICUT=11 RUNTYP=OPTIMIZE 
      SCFTYP=RHF MPLEVL=2 MAXIT=200 ISPHER=1 $END
 $BASIS  GBASIS=CCT $END
 $STATPT NSTEP=200 OPTTOL=0.00001 $END
 $SYSTEM MWORDS=300 MEMDDI=300 $END
 $SCF    DIRSCF=.T. FDIFF=.F. $END
 $TRANS  DIRTRF=.T. $END
 $DATA
 OPMMM 
 C1
 P 15.0 -0.0585378311 0.0363841126 -0.0218046042
 O 8.0 -0.337773058362 1.02729876466 0.998872519311
 C 6.0 -1.04524269243 0.177086318437 -1.54196418278
 C 6.0 -0.380798798121 -1.69901341017 0.504321009472
 C 6.0 1.652435871 0.0059507933 -0.6052671243
 H 1.0 -2.10122242622 0.123761680239 -1.28375939131
 H 1.0 -0.811353851741 -0.597853127882 -2.26995042685
 H 1.0 -0.846735773255 1.15442826095 -1.97786148118
 H 1.0 0.240769930314 -1.9160261308 1.37102003864
 H 1.0 -0.166515788612 -2.41887328043 -0.283767740197
 H 1.0 -1.42480717762 -1.78602992627 0.799414398697
 H 1.0 2.1596696339 -0.851151005 -0.1662927129
 H 1.0 2.1553335643 0.9114595235 -0.2709695649
 H 1.0 1.7070381238 -0.0583748167 -1.6906617242
 $END
