 $CONTRL MULT=1 ICHARG=0 ICUT=11 RUNTYP=OPTIMIZE 
      SCFTYP=RHF MPLEVL=2 MAXIT=200 ISPHER=1 $END
 $BASIS  GBASIS=CCT $END
 $STATPT NSTEP=200 OPTTOL=0.00001 $END
 $SYSTEM MWORDS=300 MEMDDI=300 $END
 $SCF    DIRSCF=.T. FDIFF=.F. $END
 $TRANS  DIRTRF=.T. $END
 $DATA
 OPMMM 
 C1
 P          15.0  -0.0585378311   0.0363841126  -0.0218046042
 O           8.0  -0.1988488488   0.1235782770   1.4533985157
 C           6.0  -0.8121309712   1.4108712766  -0.9227301435
 C           6.0  -0.8051462202  -1.4386685392  -0.7536354368
 C           6.0   1.6524358710   0.0059507933  -0.6052671243
 H           1.0  -1.8738136543   1.4480197096  -0.6859680184
 H           1.0  -0.6850333687   1.3053556246  -1.9987932241
 H           1.0  -0.3537246037   2.3417032264  -0.5940597801
 H           1.0  -0.3422184779  -2.3218459522  -0.3173958526
 H           1.0  -0.6783465396  -1.4604846605  -1.8346743890
 H           1.0  -1.8666803293  -1.4527974601  -0.5137371506
 H           1.0   2.1596696339  -0.8511510050  -0.1662927129
 H           1.0   2.1553335643   0.9114595235  -0.2709695649
 H           1.0   1.7070381238  -0.0583748167  -1.6906617242
 $END
