 $ZMAT DLC=.T. AUTO=.T. $END
 $ZMAT IFZMAT(1)=3, 14 , 5 , 1 , 2  FVALUE(1)= 105.0 $END
 $CONTRL COORD=UNIQUE NZVAR= 36 $END
 $CONTRL MULT=1 ICHARG=0 ICUT=11 RUNTYP=OPTIMIZE 
      SCFTYP=RHF MPLEVL=2 MAXIT=200 ISPHER=1 $END
 $BASIS  GBASIS=CCT $END
 $STATPT NSTEP=200 OPTTOL=0.00001 $END
 $SYSTEM MWORDS=300 MEMDDI=300 $END
 $SCF    DIRSCF=.T. FDIFF=.F. $END
 $TRANS  DIRTRF=.T. $END
 $DATA
 OPMMM 
 C1
 P 15.0 -0.0585378311 0.0363841126 -0.0218046042
 O 8.0 -0.828218943742 1.13285048334 -0.444840268276
 C 6.0 -0.734652182046 -1.63518901907 -0.536645539026
 C 6.0 0.0868223662845 -0.212958832679 1.79808353129
 C 6.0 1.652435871 0.0059507933 -0.6052671243
 H 1.0 -1.74849940673 -1.73145567952 -0.152649491349
 H 1.0 -0.134171318293 -2.47298878473 -0.186340826328
 H 1.0 -0.775997000405 -1.64970718552 -1.62416039095
 H 1.0 0.568522079378 0.677865879266 2.19683926007
 H 1.0 0.663099195943 -1.09256611389 2.0798553623
 H 1.0 -0.912262898818 -0.283546774245 2.22405472101
 H 1.0 2.1596696339 -0.851151005 -0.1662927129
 H 1.0 2.1553335643 0.9114595235 -0.2709695649
 H 1.0 1.7070381238 -0.0583748167 -1.6906617242
 $END
