 $ZMAT DLC=.T. AUTO=.T. $END
 $ZMAT IFZMAT(1)=3, 14 , 5 , 1 , 2  FVALUE(1)= 20.0 $END
 $CONTRL COORD=UNIQUE NZVAR= 36 $END
 $CONTRL MULT=1 ICHARG=0 ICUT=11 RUNTYP=OPTIMIZE 
      SCFTYP=RHF MPLEVL=2 MAXIT=200 ISPHER=1 $END
 $BASIS  GBASIS=CCT $END
 $STATPT NSTEP=200 OPTTOL=0.00001 $END
 $SYSTEM MWORDS=300 MEMDDI=300 $END
 $SCF    DIRSCF=.T. FDIFF=.F. $END
 $TRANS  DIRTRF=.T. $END
 $DATA
 OPMMM 
 C1
 P 15.0 -0.0585378311 0.0363841126 -0.0218046042
 O 8.0 -1.03815023414 0.246528821434 -1.01422252598
 C 6.0 -0.259421647902 -1.64292483116 0.85734695368
 C 6.0 -0.0241722140419 1.14939197923 1.40153763965
 C 6.0 1.652435871 0.0059507933 -0.6052671243
 H 1.0 -1.24859151249 -1.67409405509 1.31031261245
 H 1.0 0.494831158856 -1.81300065088 1.62375156344
 H 1.0 -0.198803141448 -2.43108156863 0.109187159141
 H 1.0 0.186310259581 2.13880090821 0.999820684831
 H 1.0 0.723102279321 0.897290146957 2.15202069479
 H 1.0 -1.00914616969 1.16849576436 1.86421120817
 H 1.0 2.1596696339 -0.851151005 -0.1662927129
 H 1.0 2.1553335643 0.9114595235 -0.2709695649
 H 1.0 1.7070381238 -0.0583748167 -1.6906617242
 $END
