 $ZMAT DLC=.T. AUTO=.T. $END
 $ZMAT IFZMAT(1)=3, 14 , 5 , 1 , 2  FVALUE(1)= 50.0 $END
 $CONTRL COORD=UNIQUE NZVAR= 36 $END
 $CONTRL MULT=1 ICHARG=0 ICUT=11 RUNTYP=OPTIMIZE 
      SCFTYP=RHF MPLEVL=2 MAXIT=200 ISPHER=1 $END
 $BASIS  GBASIS=CCT $END
 $STATPT NSTEP=200 OPTTOL=0.00001 $END
 $SYSTEM MWORDS=300 MEMDDI=300 $END
 $SCF    DIRSCF=.T. FDIFF=.F. $END
 $TRANS  DIRTRF=.T. $END
 $DATA
 OPMMM 
 C1
 P 15.0 -0.0585378311 0.0363841126 -0.0218046042
 O 8.0 -0.686199334055 1.30189358352 -0.037192361992
 C 6.0 -0.89793751524 -1.27497438528 -1.03426008666
 C 6.0 0.0180885575372 -0.798906156678 1.62708811381
 C 6.0 1.652435871 0.0059507933 -0.6052671243
 H 1.0 -1.92540863202 -1.3766944828 -0.689930948341
 H 1.0 -0.402937724737 -2.24342125311 -0.98645863911
 H 1.0 -0.913677217476 -0.92747398168 -2.06557209356
 H 1.0 0.585579305744 -0.14839125701 2.28995614612
 H 1.0 0.486102831614 -1.78137325622 1.59675074577
 H 1.0 -0.992908560541 -0.89196416598 2.0193004454
 H 1.0 2.1596696339 -0.851151005 -0.1662927129
 H 1.0 2.1553335643 0.9114595235 -0.2709695649
 H 1.0 1.7070381238 -0.0583748167 -1.6906617242
 $END
