 $ZMAT DLC=.T. AUTO=.T. $END
 $ZMAT IFZMAT(1)=3, 14 , 5 , 1 , 2  FVALUE(1)= 60.0 $END
 $CONTRL COORD=UNIQUE NZVAR= 36 $END
 $CONTRL MULT=1 ICHARG=0 ICUT=11 RUNTYP=OPTIMIZE 
      SCFTYP=RHF MPLEVL=2 MAXIT=200 ISPHER=1 $END
 $BASIS  GBASIS=CCT $END
 $STATPT NSTEP=200 OPTTOL=0.00001 $END
 $SYSTEM MWORDS=300 MEMDDI=300 $END
 $SCF    DIRSCF=.T. FDIFF=.F. $END
 $TRANS  DIRTRF=.T. $END
 $DATA
 OPMMM 
 C1
 P 15.0 -0.0585378311 0.0363841126 -0.0218046042
 O 8.0 -1.0014378158 -0.652096455516 -0.859693093165
 C 6.0 0.0446298128428 -0.772893180984 1.70358143387
 C 6.0 -0.356710667437 1.73261747474 0.395964845828
 C 6.0 1.652435871 0.0059507933 -0.6052671243
 H 1.0 -0.941341802512 -0.721023961663 2.16159452031
 H 1.0 0.768434241231 -0.274041382133 2.34580658056
 H 1.0 0.318874332531 -1.82060353971 1.59540716727
 H 1.0 -0.337853663633 2.27992584079 -0.544624000646
 H 1.0 0.378813344268 2.15789411909 1.07665825868
 H 1.0 -1.34994097428 1.82953254938 0.830368465506
 H 1.0 2.1596696339 -0.851151005 -0.1662927129
 H 1.0 2.1553335643 0.9114595235 -0.2709695649
 H 1.0 1.7070381238 -0.0583748167 -1.6906617242
 $END
