 $ZMAT DLC=.T. AUTO=.T. $END
 $ZMAT IFZMAT(1)=3, 14 , 5 , 1 , 2  FVALUE(1)= 10.0 $END
 $CONTRL COORD=UNIQUE NZVAR= 36 $END
 $CONTRL MULT=1 ICHARG=0 ICUT=11 RUNTYP=OPTIMIZE 
      SCFTYP=RHF MPLEVL=2 MAXIT=200 ISPHER=1 $END
 $BASIS  GBASIS=CCT $END
 $STATPT NSTEP=200 OPTTOL=0.00001 $END
 $SYSTEM MWORDS=300 MEMDDI=300 $END
 $SCF    DIRSCF=.T. FDIFF=.F. $END
 $TRANS  DIRTRF=.T. $END
 $DATA
 OPMMM 
 C1
 P 15.0 -0.0585378311 0.0363841126 -0.0218046042
 O 8.0 -0.290960241659 -0.75608445589 1.22916969292
 C 6.0 -0.423277943002 1.81210281137 0.196633098043
 C 6.0 -1.01778311345 -0.458274264531 -1.42831936402
 C 6.0 1.652435871 0.0059507933 -0.6052671243
 H 1.0 -1.47063308118 1.92179550553 0.47162611055
 H 1.0 -0.230366776822 2.36553766078 -0.7208058679
 H 1.0 0.187678264667 2.21956879243 0.999946679962
 H 1.0 -0.785207862474 -1.49609353565 -1.65951046544
 H 1.0 -0.807499215294 0.161873747908 -2.29802991539
 H 1.0 -2.07582190707 -0.38949910043 -1.18249551063
 H 1.0 2.1596696339 -0.851151005 -0.1662927129
 H 1.0 2.1553335643 0.9114595235 -0.2709695649
 H 1.0 1.7070381238 -0.0583748167 -1.6906617242
 $END
