 $ZMAT DLC=.T. AUTO=.T. $END
 $ZMAT IFZMAT(1)=3, 14 , 5 , 1 , 2  FVALUE(1)= 5.0 $END
 $CONTRL COORD=UNIQUE NZVAR= 36 $END
 $CONTRL MULT=1 ICHARG=0 ICUT=11 RUNTYP=OPTIMIZE 
      SCFTYP=RHF MPLEVL=2 MAXIT=200 ISPHER=1 $END
 $BASIS  GBASIS=CCT $END
 $STATPT NSTEP=200 OPTTOL=0.00001 $END
 $SYSTEM MWORDS=300 MEMDDI=300 $END
 $SCF    DIRSCF=.T. FDIFF=.F. $END
 $TRANS  DIRTRF=.T. $END
 $DATA
 OPMMM 
 C1
 P 15.0 -0.0585378311 0.0363841126 -0.0218046042
 O 8.0 -0.759301023371 1.23655273954 -0.248151121106
 C 6.0 -0.821852705752 -1.47825424148 -0.800542265486
 C 6.0 0.0607066673533 -0.514197540685 1.73721315989
 C 6.0 1.652435871 0.0059507933 -0.6052671243
 H 1.0 -1.8424657441 -1.57910935059 -0.436147284081
 H 1.0 -0.272485530676 -2.39561320087 -0.595976008759
 H 1.0 -0.855532663832 -1.30897440734 -1.87516718726
 H 1.0 0.588955060384 0.268750327083 2.27809732851
 H 1.0 0.584073505801 -1.45990882289 1.86727714966
 H 1.0 -0.944040009956 -0.59761255025 2.14725160872
 H 1.0 2.1596696339 -0.851151005 -0.1662927129
 H 1.0 2.1553335643 0.9114595235 -0.2709695649
 H 1.0 1.7070381238 -0.0583748167 -1.6906617242
 $END
