 $ZMAT DLC=.T. AUTO=.T. $END
 $ZMAT IFZMAT(1)=3, 14 , 5 , 1 , 2  FVALUE(1)= 70.0 $END
 $CONTRL COORD=UNIQUE NZVAR= 36 $END
 $CONTRL MULT=1 ICHARG=0 ICUT=11 RUNTYP=OPTIMIZE 
      SCFTYP=RHF MPLEVL=2 MAXIT=200 ISPHER=1 $END
 $BASIS  GBASIS=CCT $END
 $STATPT NSTEP=200 OPTTOL=0.00001 $END
 $SYSTEM MWORDS=300 MEMDDI=300 $END
 $SCF    DIRSCF=.T. FDIFF=.F. $END
 $TRANS  DIRTRF=.T. $END
 $DATA
 OPMMM 
 C1
 P 15.0 -0.0585378311 0.0363841126 -0.0218046042
 O 8.0 -0.230562714422 0.571244624845 1.33704903199
 C 6.0 -0.954036251039 0.930224268829 -1.31378956939
 C 6.0 -0.627651188517 -1.68628258207 -0.220224912609
 C 6.0 1.652435871 0.0059507933 -0.6052671243
 H 1.0 -2.01613830727 0.925089087079 -1.0760517272
 H 1.0 -0.801745317477 0.491904168541 -2.29861547687
 H 1.0 -0.607982253325 1.96212471157 -1.31985844469
 H 1.0 -0.0737459277432 -2.32006000551 0.469792878374
 H 1.0 -0.485039202374 -2.04776128977 -1.23717834498
 H 1.0 -1.68385844645 -1.7384685128 0.0372791375343
 H 1.0 2.1596696339 -0.851151005 -0.1662927129
 H 1.0 2.1553335643 0.9114595235 -0.2709695649
 H 1.0 1.7070381238 -0.0583748167 -1.6906617242
 $END
