 $ZMAT DLC=.T. AUTO=.T. $END
 $ZMAT IFZMAT(1)=3, 14 , 5 , 1 , 2  FVALUE(1)= 30.0 $END
 $CONTRL COORD=UNIQUE NZVAR= 36 $END
 $CONTRL MULT=1 ICHARG=0 ICUT=11 RUNTYP=OPTIMIZE 
      SCFTYP=RHF MPLEVL=2 MAXIT=200 ISPHER=1 $END
 $BASIS  GBASIS=CCT $END
 $STATPT NSTEP=200 OPTTOL=0.00001 $END
 $SYSTEM MWORDS=300 MEMDDI=300 $END
 $SCF    DIRSCF=.T. FDIFF=.F. $END
 $TRANS  DIRTRF=.T. $END
 $DATA
 OPMMM 
 C1
 P 15.0 -0.0585378311 0.0363841126 -0.0218046042
 O 8.0 -0.536479005396 1.31082296195 0.401389013101
 C 6.0 -1.00787402658 -0.755662163764 -1.38373047666
 C 6.0 -0.110917846303 -1.2846441721 1.27411952172
 C 6.0 1.652435871 0.0059507933 -0.6052671243
 H 1.0 -2.0485005659 -0.847961061411 -1.07847034383
 H 1.0 -0.624646286315 -1.73560656134 -1.66309508353
 H 1.0 -0.959433316778 -0.0899511790358 -2.24343455759
 H 1.0 0.508608092984 -0.955729283224 2.10635267336
 H 1.0 0.245880145871 -2.24908706519 0.916706011796
 H 1.0 -1.13540273279 -1.38636910253 1.62723173448
 H 1.0 2.1596696339 -0.851151005 -0.1662927129
 H 1.0 2.1553335643 0.9114595235 -0.2709695649
 H 1.0 1.7070381238 -0.0583748167 -1.6906617242
 $END
