 $ZMAT DLC=.T. AUTO=.T. $END
 $ZMAT IFZMAT(1)=3, 14 , 5 , 1 , 2  FVALUE(1)= 25.0 $END
 $CONTRL COORD=UNIQUE NZVAR= 36 $END
 $CONTRL MULT=1 ICHARG=0 ICUT=11 RUNTYP=OPTIMIZE 
      SCFTYP=RHF MPLEVL=2 MAXIT=200 ISPHER=1 $END
 $BASIS  GBASIS=CCT $END
 $STATPT NSTEP=200 OPTTOL=0.00001 $END
 $SYSTEM MWORDS=300 MEMDDI=300 $END
 $SCF    DIRSCF=.T. FDIFF=.F. $END
 $TRANS  DIRTRF=.T. $END
 $DATA
 OPMMM 
 C1
 P 15.0 -0.0585378311 0.0363841126 -0.0218046042
 O 8.0 -1.02171691631 0.415831088577 -0.974863451649
 C 6.0 -0.333339062332 -1.7247012931 0.644853402222
 C 6.0 0.0178938185128 0.964842810173 1.53452016478
 C 6.0 1.652435871 0.0059507933 -0.6052671243
 H 1.0 -1.32515323555 -1.76992097022 1.0907976321
 H 1.0 0.409213885059 -2.02155866435 1.38356168582
 H 1.0 -0.302652665923 -2.41485235539 -0.19619272053
 H 1.0 0.272278106128 1.98682666555 1.25984390842
 H 1.0 0.750061113698 0.588973278799 2.24715784661
 H 1.0 -0.967635796803 0.968058745291 1.99639299793
 H 1.0 2.1596696339 -0.851151005 -0.1662927129
 H 1.0 2.1553335643 0.9114595235 -0.2709695649
 H 1.0 1.7070381238 -0.0583748167 -1.6906617242
 $END
