 $ZMAT DLC=.T. AUTO=.T. $END
 $ZMAT IFZMAT(1)=3, 14 , 5 , 1 , 2  FVALUE(1)= 65.0 $END
 $CONTRL COORD=UNIQUE NZVAR= 36 $END
 $CONTRL MULT=1 ICHARG=0 ICUT=11 RUNTYP=OPTIMIZE 
      SCFTYP=RHF MPLEVL=2 MAXIT=200 ISPHER=1 $END
 $BASIS  GBASIS=CCT $END
 $STATPT NSTEP=200 OPTTOL=0.00001 $END
 $SYSTEM MWORDS=300 MEMDDI=300 $END
 $SCF    DIRSCF=.T. FDIFF=.F. $END
 $TRANS  DIRTRF=.T. $END
 $DATA
 OPMMM 
 C1
 P 15.0 -0.0585378311 0.0363841126 -0.0218046042
 O 8.0 -0.249550573611 -0.555781001927 1.34015360678
 C 6.0 -0.526379140951 1.7926266767 -0.104689967046
 C 6.0 -0.987379979579 -0.746863348469 -1.32411098018
 C 6.0 1.652435871 0.0059507933 -0.6052671243
 H 1.0 -1.57878363392 1.88719582323 0.156284915395
 H 1.0 -0.363714020851 2.19535486143 -1.10296306331
 H 1.0 0.0588685098239 2.36224172025 0.614776928459
 H 1.0 -0.695526551947 -1.79385684578 -1.38099336421
 H 1.0 -0.811264850071 -0.269523035361 -2.28657085205
 H 1.0 -2.04806232671 -0.698040648753 -1.08499849327
 H 1.0 2.1596696339 -0.851151005 -0.1662927129
 H 1.0 2.1553335643 0.9114595235 -0.2709695649
 H 1.0 1.7070381238 -0.0583748167 -1.6906617242
 $END
