 $ZMAT DLC=.T. AUTO=.T. $END
 $ZMAT IFZMAT(1)=3, 14 , 5 , 1 , 2  FVALUE(1)= 140.0 $END
 $CONTRL COORD=UNIQUE NZVAR= 36 $END
 $CONTRL MULT=1 ICHARG=0 ICUT=11 RUNTYP=OPTIMIZE 
      SCFTYP=RHF MPLEVL=2 MAXIT=200 ISPHER=1 $END
 $BASIS  GBASIS=CCT $END
 $STATPT NSTEP=200 OPTTOL=0.00001 $END
 $SYSTEM MWORDS=300 MEMDDI=300 $END
 $SCF    DIRSCF=.T. FDIFF=.F. $END
 $TRANS  DIRTRF=.T. $END
 $DATA
 OPMMM 
 C1
 P 15.0 -0.0585378311 0.0363841126 -0.0218046042
 O 8.0 -0.982608791867 -0.750116577068 -0.799365237929
 C 6.0 0.0672346469639 -0.625843507694 1.76219885296
 C 6.0 -0.406052114271 1.74882859494 0.250428032018
 C 6.0 1.652435871 0.0059507933 -0.6052671243
 H 1.0 -0.919684385168 -0.563904561633 2.21690845317
 H 1.0 0.776647771676 -0.0545056284709 2.35844138168
 H 1.0 0.371330063869 -1.67068922968 1.7414113815
 H 1.0 -0.403145559624 2.21571393453 -0.732739829467
 H 1.0 0.317193367555 2.25043739622 0.891133816147
 H 1.0 -1.40152335088 1.8534514627 0.677858203539
 H 1.0 2.1596696339 -0.851151005 -0.1662927129
 H 1.0 2.1553335643 0.9114595235 -0.2709695649
 H 1.0 1.7070381238 -0.0583748167 -1.6906617242
 $END
