 $CONTRL ICHARG=+3 MULT=1
         MPLEVL=2  
         SCFTYP=RHF 
         MAXIT=200 ISPHER=1 ICUT=11
         RUNTYP=OPTIMIZE
         PP=READ
         $END
 $SCF    DIRSCF=.T. FDIFF=.F. $END
 $TRANS  DIRTRF=.T. $END
 $SYSTEM MWORDS=300 MEMDDI=300 $END
 $GUESS  GUESS=HUCKEL $END
 $BASIS  BASNAM(1)=METAL, 
                   LIGP,
                   LIGO,
                   LIGC,
                   LIGC,
                   LIGC,
                   LIGH,
                   LIGH,
                   LIGH,
                   LIGH,
                   LIGH,
                   LIGH,
                   LIGH,
                   LIGH,
                   LIGH
 $END
 $DATA
 
 C1
 La         57.0 -0.1739353441 1.134168269 -4.0490164368
 P          15.0  -0.0204923031   0.1662373508   0.2671250090
 O           8.0  -0.0823048261   0.5504782707  -1.4458903990
 C           6.0  -1.4699841992   0.8786931146   1.0028018844
 C           6.0   1.4720346527   0.8889819841   0.8995361966
 C           6.0  -0.0095623237  -1.6040426971   0.3938877622
 H           1.0  -1.4717328660   1.9615261856   0.8894304864
 H           1.0  -1.4332516029   0.6424903370   2.0706944083
 H           1.0  -2.3743787880   0.4409879806   0.5836513694
 H           1.0   2.3481031413   0.4570148819   0.4187059148
 H           1.0   1.5112204520   0.6524201130   1.9672792205
 H           1.0   1.4587975115   1.9717356589   0.7866771939
 H           1.0   0.8726281760  -2.0232340423  -0.0871795433
 H           1.0  -0.9209438254  -2.0300891851  -0.0223114425
 H           1.0   0.0299478650  -1.8453895216   1.4604579161
 $END
!
 $ECP
 La-ECP SBKJC
 P-ECP  NONE
 O-ECP  NONE
 C-ECP  NONE
 C-ECP  NONE
 C-ECP  NONE
 H-ECP  NONE
 H-ECP  NONE
 H-ECP  NONE
 H-ECP  NONE
 H-ECP  NONE
 H-ECP  NONE
 H-ECP  NONE
 H-ECP  NONE
 H-ECP  NONE
 $END
!
!       sbkjc for La
 $METAL
 SBKJC

 $END
!       cc-pVTZ for P
 $LIGP
 CCT

 $END
!       cc-pVTZ for O 
 $LIGO
 CCT

 $END
!       cc-pVTZ for C
 $LIGC
 CCT

 $END
!       cc-pVTZ for H
 $LIGH
 CCT

 $END

