 $ZMAT DLC=.T. AUTO=.T. $END
 $ZMAT IFZMAT(1)=3, 14 , 5 , 1 , 2  FVALUE(1)= 95.0 $END
 $CONTRL COORD=UNIQUE NZVAR= 36 $END
 $CONTRL MULT=1 ICHARG=0 ICUT=11 RUNTYP=OPTIMIZE 
      SCFTYP=RHF MPLEVL=2 MAXIT=200 ISPHER=1 $END
 $BASIS  GBASIS=CCT $END
 $STATPT NSTEP=200 OPTTOL=0.00001 $END
 $SYSTEM MWORDS=300 MEMDDI=300 $END
 $SCF    DIRSCF=.T. FDIFF=.F. $END
 $TRANS  DIRTRF=.T. $END
 $DATA
 OPMMM 
 C1
 P 15.0 -0.0585378311 0.0363841126 -0.0218046042
 O 8.0 -0.747780564291 -1.26529420126 -0.0838720011828
 C 6.0 0.0892559058058 0.624963846137 1.76153312928
 C 6.0 -0.785158182431 1.39955894829 -0.843063077129
 C 6.0 1.652435871 0.0059507933 -0.6052671243
 H 1.0 -0.914522893928 0.74910320405 2.16355796753
 H 1.0 0.621574113594 1.57288558967 1.81881140274
 H 1.0 0.610264277512 -0.119097453217 2.3611428221
 H 1.0 -0.820702944696 1.14864583247 -1.90154717736
 H 1.0 -0.22723191851 2.32476680699 -0.709242224713
 H 1.0 -1.80469157481 1.53754683194 -0.487934248825
 H 1.0 2.1596696339 -0.851151005 -0.1662927129
 H 1.0 2.1553335643 0.9114595235 -0.2709695649
 H 1.0 1.7070381238 -0.0583748167 -1.6906617242
 $END
