 $ZMAT DLC=.T. AUTO=.T. $END
 $ZMAT IFZMAT(1)=3, 14 , 5 , 1 , 2  FVALUE(1)= 80.0 $END
 $CONTRL COORD=UNIQUE NZVAR= 36 $END
 $CONTRL MULT=1 ICHARG=0 ICUT=11 RUNTYP=OPTIMIZE 
      SCFTYP=RHF MPLEVL=2 MAXIT=200 ISPHER=1 $END
 $BASIS  GBASIS=CCT $END
 $STATPT NSTEP=200 OPTTOL=0.00001 $END
 $SYSTEM MWORDS=300 MEMDDI=300 $END
 $SCF    DIRSCF=.T. FDIFF=.F. $END
 $TRANS  DIRTRF=.T. $END
 $DATA
 OPMMM 
 C1
 P 15.0 -0.0585378311 0.0363841126 -0.0218046042
 O 8.0 -0.674209819616 -1.3018160267 0.13377538041
 C 6.0 0.0502668729614 0.913876202594 1.63213017834
 C 6.0 -0.862215669879 1.19276890574 -1.05824404053
 C 6.0 1.652435871 0.0059507933 -0.6052671243
 H 1.0 -0.959684599374 1.04631121923 2.01562127269
 H 1.0 0.527523547669 1.88665492004 1.52664681408
 H 1.0 0.611799629479 0.310848798953 2.34321922911
 H 1.0 -0.881472908804 0.767329183766 -2.05986253774
 H 1.0 -0.35823488372 2.15739539842 -1.08467158531
 H 1.0 -1.88860154397 1.3301282059 -0.723176974037
 H 1.0 2.1596696339 -0.851151005 -0.1662927129
 H 1.0 2.1553335643 0.9114595235 -0.2709695649
 H 1.0 1.7070381238 -0.0583748167 -1.6906617242
 $END
