 $ZMAT DLC=.T. AUTO=.T. $END
 $ZMAT IFZMAT(1)=3, 14 , 5 , 1 , 2  FVALUE(1)= 145.0 $END
 $CONTRL COORD=UNIQUE NZVAR= 36 $END
 $CONTRL MULT=1 ICHARG=0 ICUT=11 RUNTYP=OPTIMIZE 
      SCFTYP=RHF MPLEVL=2 MAXIT=200 ISPHER=1 $END
 $BASIS  GBASIS=CCT $END
 $STATPT NSTEP=200 OPTTOL=0.00001 $END
 $SYSTEM MWORDS=300 MEMDDI=300 $END
 $SCF    DIRSCF=.T. FDIFF=.F. $END
 $TRANS  DIRTRF=.T. $END
 $DATA
 OPMMM 
 C1
 P 15.0 -0.0585378311 0.0363841126 -0.0218046042
 O 8.0 -0.834016692194 -1.16387328036 -0.342045092158
 C 6.0 0.113419824999 0.237990999851 1.85257702094
 C 6.0 -0.675256575762 1.59625098944 -0.531041720375
 C 6.0 1.652435871 0.0059507933 -0.6052671243
 H 1.0 -0.883541643884 0.347153971041 2.2753744959
 H 1.0 0.710476415133 1.11306917713 2.10349676636
 H 1.0 0.574051764997 -0.649418722227 2.28261297912
 H 1.0 -0.71659443988 1.57354411251 -1.61841699643
 H 1.0 -0.0551078334917 2.4314679418 -0.21006275178
 H 1.0 -1.68643580293 1.72977457906 -0.151181877192
 H 1.0 2.1596696339 -0.851151005 -0.1662927129
 H 1.0 2.1553335643 0.9114595235 -0.2709695649
 H 1.0 1.7070381238 -0.0583748167 -1.6906617242
 $END
