 $ZMAT DLC=.T. AUTO=.T. $END
 $ZMAT IFZMAT(1)=3, 14 , 5 , 1 , 2  FVALUE(1)= 55.0 $END
 $CONTRL COORD=UNIQUE NZVAR= 36 $END
 $CONTRL MULT=1 ICHARG=0 ICUT=11 RUNTYP=OPTIMIZE 
      SCFTYP=RHF MPLEVL=2 MAXIT=200 ISPHER=1 $END
 $BASIS  GBASIS=CCT $END
 $STATPT NSTEP=200 OPTTOL=0.00001 $END
 $SYSTEM MWORDS=300 MEMDDI=300 $END
 $SCF    DIRSCF=.T. FDIFF=.F. $END
 $TRANS  DIRTRF=.T. $END
 $DATA
 OPMMM 
 C1
 P 15.0 -0.0585378311 0.0363841126 -0.0218046042
 O 8.0 -0.204634475292 0.296240024378 1.42742645349
 C 6.0 -0.871454866726 1.2481650046 -1.08820766759
 C 6.0 -0.742370414352 -1.55478516328 -0.563492002718
 C 6.0 1.652435871 0.0059507933 -0.6052671243
 H 1.0 -1.93386296224 1.26944502809 -0.852745083024
 H 1.0 -0.739454002031 1.01408069447 -2.14318606276
 H 1.0 -0.453534280323 2.23153479516 -0.881000132059
 H 1.0 -0.242200146373 -2.35577223088 -0.0223276720207
 H 1.0 -0.614253816495 -1.70654350675 -1.63389139587
 H 1.0 -1.80243282072 -1.58393144144 -0.318494721119
 H 1.0 2.1596696339 -0.851151005 -0.1662927129
 H 1.0 2.1553335643 0.9114595235 -0.2709695649
 H 1.0 1.7070381238 -0.0583748167 -1.6906617242
 $END
