 $ZMAT DLC=.T. AUTO=.T. $END
 $ZMAT IFZMAT(1)=3, 14 , 5 , 1 , 2  FVALUE(1)= 120.0 $END
 $CONTRL COORD=UNIQUE NZVAR= 36 $END
 $CONTRL MULT=1 ICHARG=0 ICUT=11 RUNTYP=OPTIMIZE 
      SCFTYP=RHF MPLEVL=2 MAXIT=200 ISPHER=1 $END
 $BASIS  GBASIS=CCT $END
 $STATPT NSTEP=200 OPTTOL=0.00001 $END
 $SYSTEM MWORDS=300 MEMDDI=300 $END
 $SCF    DIRSCF=.T. FDIFF=.F. $END
 $TRANS  DIRTRF=.T. $END
 $DATA
 OPMMM 
 C1
 P 15.0 -0.0585378311 0.0363841126 -0.0218046042
 O 8.0 -0.592392966485 1.32675313709 0.236593294784
 C 6.0 -0.973896552074 -0.965485744614 -1.27314892061
 C 6.0 -0.0563044397452 -1.11826250373 1.42559207209
 C 6.0 1.652435871 0.0059507933 -0.6052671243
 H 1.0 -2.00974750461 -1.06302950888 -0.953611054715
 H 1.0 -0.548861826644 -1.95550235867 -1.42939133763
 H 1.0 -0.953656466862 -0.411392887038 -2.20972789136
 H 1.0 0.548159635486 -0.661475820452 2.20698731138
 H 1.0 0.341696022134 -2.10382860249 1.19010445961
 H 1.0 -1.0756463966 -1.21846024866 1.79370600258
 H 1.0 2.1596696339 -0.851151005 -0.1662927129
 H 1.0 2.1553335643 0.9114595235 -0.2709695649
 H 1.0 1.7070381238 -0.0583748167 -1.6906617242
 $END
