 $ZMAT DLC=.T. AUTO=.T. $END
 $ZMAT IFZMAT(1)=3, 14 , 5 , 1 , 2  FVALUE(1)= 115.0 $END
 $CONTRL COORD=UNIQUE NZVAR= 36 $END
 $CONTRL MULT=1 ICHARG=0 ICUT=11 RUNTYP=OPTIMIZE 
      SCFTYP=RHF MPLEVL=2 MAXIT=200 ISPHER=1 $END
 $BASIS  GBASIS=CCT $END
 $STATPT NSTEP=200 OPTTOL=0.00001 $END
 $SYSTEM MWORDS=300 MEMDDI=300 $END
 $SCF    DIRSCF=.T. FDIFF=.F. $END
 $TRANS  DIRTRF=.T. $END
 $DATA
 OPMMM 
 C1
 P 15.0 -0.0585378311 0.0363841126 -0.0218046042
 O 8.0 -0.351967064547 1.06327892049 0.955372609708
 C 6.0 -1.04835247038 0.097491296558 -1.54693178136
 C 6.0 -0.356267076493 -1.68167615905 0.575354707516
 C 6.0 1.652435871 0.0059507933 -0.6052671243
 H 1.0 -2.10334764937 0.0399731990927 -1.28562110357
 H 1.0 -0.803742925806 -0.703820187503 -2.24210455343
 H 1.0 -0.864020064294 1.05846660074 -2.02354142575
 H 1.0 0.268724101431 -1.85335018922 1.4497250336
 H 1.0 -0.132074879307 -2.43075637564 -0.182151732167
 H 1.0 -1.39879444359 -1.77113894676 0.874918686283
 H 1.0 2.1596696339 -0.851151005 -0.1662927129
 H 1.0 2.1553335643 0.9114595235 -0.2709695649
 H 1.0 1.7070381238 -0.0583748167 -1.6906617242
 $END
