 $ZMAT DLC=.T. AUTO=.T. $END
 $ZMAT IFZMAT(1)=3, 14 , 5 , 1 , 2  FVALUE(1)= 160.0 $END
 $CONTRL COORD=UNIQUE NZVAR= 36 $END
 $CONTRL MULT=1 ICHARG=0 ICUT=11 RUNTYP=OPTIMIZE 
      SCFTYP=RHF MPLEVL=2 MAXIT=200 ISPHER=1 $END
 $BASIS  GBASIS=CCT $END
 $STATPT NSTEP=200 OPTTOL=0.00001 $END
 $SYSTEM MWORDS=300 MEMDDI=300 $END
 $SCF    DIRSCF=.T. FDIFF=.F. $END
 $TRANS  DIRTRF=.T. $END
 $DATA
 OPMMM 
 C1
 P 15.0 -0.0585378311 0.0363841126 -0.0218046042
 O 8.0 -0.817436737115 -1.18896802026 -0.292116292363
 C 6.0 0.110830041855 0.31700444674 1.84086128587
 C 6.0 -0.698255552826 1.56279699149 -0.596740077013
 C 6.0 1.652435871 0.0059507933 -0.6052671243
 H 1.0 -0.887402240316 0.429548248112 2.2597558229
 H 1.0 0.695420992937 1.21026018368 2.05427804982
 H 1.0 0.58429925771 -0.544941630568 2.30721371243
 H 1.0 -0.739749138105 1.49395841914 -1.68216577488
 H 1.0 -0.089973442503 2.41949581812 -0.311679885051
 H 1.0 -1.7110717115 1.69767541397 -0.221751118785
 H 1.0 2.1596696339 -0.851151005 -0.1662927129
 H 1.0 2.1553335643 0.9114595235 -0.2709695649
 H 1.0 1.7070381238 -0.0583748167 -1.6906617242
 $END
