 $ZMAT DLC=.T. AUTO=.T. $END
 $ZMAT IFZMAT(1)=3, 14 , 5 , 1 , 2  FVALUE(1)= 135.0 $END
 $CONTRL COORD=UNIQUE NZVAR= 36 $END
 $CONTRL MULT=1 ICHARG=0 ICUT=11 RUNTYP=OPTIMIZE 
      SCFTYP=RHF MPLEVL=2 MAXIT=200 ISPHER=1 $END
 $BASIS  GBASIS=CCT $END
 $STATPT NSTEP=200 OPTTOL=0.00001 $END
 $SYSTEM MWORDS=300 MEMDDI=300 $END
 $SCF    DIRSCF=.T. FDIFF=.F. $END
 $TRANS  DIRTRF=.T. $END
 $DATA
 OPMMM 
 C1
 P 15.0 -0.0585378311 0.0363841126 -0.0218046042
 O 8.0 -0.77706832418 1.21404139003 -0.299078624297
 C 6.0 -0.800924019836 -1.52219474869 -0.736878044687
 C 6.0 0.0688501924149 -0.439829954595 1.75721462412
 C 6.0 1.652435871 0.0059507933 -0.6052671243
 H 1.0 -1.81982292505 -1.62224543431 -0.367498415016
 H 1.0 -0.238365283906 -2.42219254281 -0.494533772981
 H 1.0 -0.837507811568 -1.39871598121 -1.81762933174
 H 1.0 0.586056421145 0.372632038502 2.26417876386
 H 1.0 0.605784658863 -1.37165455333 1.92634065482
 H 1.0 -0.934413747641 -0.520312880919 2.17144818634
 H 1.0 2.1596696339 -0.851151005 -0.1662927129
 H 1.0 2.1553335643 0.9114595235 -0.2709695649
 H 1.0 1.7070381238 -0.0583748167 -1.6906617242
 $END
