 $ZMAT DLC=.T. AUTO=.T. $END
 $ZMAT IFZMAT(1)=3, 14 , 5 , 1 , 2  FVALUE(1)= 150.0 $END
 $CONTRL COORD=UNIQUE NZVAR= 36 $END
 $CONTRL MULT=1 ICHARG=0 ICUT=11 RUNTYP=OPTIMIZE 
      SCFTYP=RHF MPLEVL=2 MAXIT=200 ISPHER=1 $END
 $BASIS  GBASIS=CCT $END
 $STATPT NSTEP=200 OPTTOL=0.00001 $END
 $SYSTEM MWORDS=300 MEMDDI=300 $END
 $SCF    DIRSCF=.T. FDIFF=.F. $END
 $TRANS  DIRTRF=.T. $END
 $DATA
 OPMMM 
 C1
 P 15.0 -0.0585378311 0.0363841126 -0.0218046042
 O 8.0 -1.03522201672 -0.386692069567 -0.972606971028
 C 6.0 -0.0288276234837 -1.11055392318 1.50578363089
 C 6.0 -0.238272675354 1.63372680273 0.748436262752
 C 6.0 1.652435871 0.0059507933 -0.6052671243
 H 1.0 -1.01373780114 -1.08477589428 1.96827024121
 H 1.0 0.721100826536 -0.808525039394 2.23488237593
 H 1.0 0.172188725989 -2.12985253229 1.18138958497
 H 1.0 -0.17048288941 2.36143722348 -0.058069472324
 H 1.0 0.517739677375 1.85515921113 1.49984316274
 H 1.0 -1.22699028759 1.70886731292 1.19720888435
 H 1.0 2.1596696339 -0.851151005 -0.1662927129
 H 1.0 2.1553335643 0.9114595235 -0.2709695649
 H 1.0 1.7070381238 -0.0583748167 -1.6906617242
 $END
