 $ZMAT DLC=.T. AUTO=.T. $END
 $ZMAT IFZMAT(1)=3, 14 , 5 , 1 , 2  FVALUE(1)= 165.0 $END
 $CONTRL COORD=UNIQUE NZVAR= 36 $END
 $CONTRL MULT=1 ICHARG=0 ICUT=11 RUNTYP=OPTIMIZE 
      SCFTYP=RHF MPLEVL=2 MAXIT=200 ISPHER=1 $END
 $BASIS  GBASIS=CCT $END
 $STATPT NSTEP=200 OPTTOL=0.00001 $END
 $SYSTEM MWORDS=300 MEMDDI=300 $END
 $SCF    DIRSCF=.T. FDIFF=.F. $END
 $TRANS  DIRTRF=.T. $END
 $DATA
 OPMMM 
 C1
 P 15.0 -0.0585378311 0.0363841126 -0.0218046042
 O 8.0 -0.233136524623 -0.448346187054 1.38268317343
 C 6.0 -0.577549343958 1.76179015695 -0.253135515888
 C 6.0 -0.965962960936 -0.883115156982 -1.25419980497
 C 6.0 1.652435871 0.0059507933 -0.6052671243
 H 1.0 -1.6321552608 1.84785190895 0.00182754918404
 H 1.0 -0.426778557475 2.08387260926 -1.28208166155
 H 1.0 -0.00865144194179 2.40618548307 0.414486057363
 H 1.0 -0.644251190922 -1.92243913727 -1.22392418315
 H 1.0 -0.803874797594 -0.483327289995 -2.25374790639
 H 1.0 -2.02753912426 -0.844689301877 -1.01716609001
 H 1.0 2.1596696339 -0.851151005 -0.1662927129
 H 1.0 2.1553335643 0.9114595235 -0.2709695649
 H 1.0 1.7070381238 -0.0583748167 -1.6906617242
 $END
