 $ZMAT DLC=.T. AUTO=.T. $END
 $ZMAT IFZMAT(1)=3, 14 , 5 , 1 , 2  FVALUE(1)= 45.0 $END
 $CONTRL COORD=UNIQUE NZVAR= 36 $END
 $CONTRL MULT=1 ICHARG=0 ICUT=11 RUNTYP=OPTIMIZE 
      SCFTYP=RHF MPLEVL=2 MAXIT=200 ISPHER=1 $END
 $BASIS  GBASIS=CCT $END
 $STATPT NSTEP=200 OPTTOL=0.00001 $END
 $SYSTEM MWORDS=300 MEMDDI=300 $END
 $SCF    DIRSCF=.T. FDIFF=.F. $END
 $TRANS  DIRTRF=.T. $END
 $DATA
 OPMMM 
 C1
 P 15.0 -0.0585378311 0.0363841126 -0.0218046042
 O 8.0 -0.794416198203 1.18933495462 -0.348661684746
 C 6.0 -0.779487523865 -1.56285005215 -0.671896052875
 C 6.0 0.0758907235696 -0.365092186213 1.77396230705
 C 6.0 1.652435871 0.0059507933 -0.6052671243
 H 1.0 -1.7966933172 -1.66187096299 -0.297605172983
 H 1.0 -0.204057840503 -2.44386333825 -0.392798621806
 H 1.0 -0.818307648453 -1.48511289989 -1.75681939459
 H 1.0 0.58169684337 0.475087774064 2.24605045112
 H 1.0 0.626119507513 -1.28132106962 1.98125976688
 H 1.0 -0.925940461084 -0.442470301601 2.19223540399
 H 1.0 2.1596696339 -0.851151005 -0.1662927129
 H 1.0 2.1553335643 0.9114595235 -0.2709695649
 H 1.0 1.7070381238 -0.0583748167 -1.6906617242
 $END
