 $ZMAT DLC=.T. AUTO=.T. $END
 $ZMAT IFZMAT(1)=3, 14 , 5 , 1 , 2  FVALUE(1)= 15.0 $END
 $CONTRL COORD=UNIQUE NZVAR= 36 $END
 $CONTRL MULT=1 ICHARG=0 ICUT=11 RUNTYP=OPTIMIZE 
      SCFTYP=RHF MPLEVL=2 MAXIT=200 ISPHER=1 $END
 $BASIS  GBASIS=CCT $END
 $STATPT NSTEP=200 OPTTOL=0.00001 $END
 $SYSTEM MWORDS=300 MEMDDI=300 $END
 $SCF    DIRSCF=.T. FDIFF=.F. $END
 $TRANS  DIRTRF=.T. $END
 $DATA
 OPMMM 
 C1
 P 15.0 -0.0585378311 0.0363841126 -0.0218046042
 O 8.0 -0.704741631318 1.28928448647 -0.0909090022843
 C 6.0 -0.880095378791 -1.32980520175 -0.97907897581
 C 6.0 0.0302230131493 -0.729780701142 1.6590662045
 C 6.0 1.652435871 0.0059507933 -0.6052671243
 H 1.0 -1.90585521237 -1.43166119482 -0.629724499615
 H 1.0 -0.371291876617 -2.28825006891 -0.891320559686
 H 1.0 -0.901256584986 -1.02602481911 -2.02400883316
 H 1.0 0.588659445386 -0.0440753846256 2.29354739594
 H 1.0 0.51220919729 -1.7058864794 1.66936893544
 H 1.0 -0.97916689428 -0.82074457199 2.05588236834
 H 1.0 2.1596696339 -0.851151005 -0.1662927129
 H 1.0 2.1553335643 0.9114595235 -0.2709695649
 H 1.0 1.7070381238 -0.0583748167 -1.6906617242
 $END
