 $ZMAT DLC=.T. AUTO=.T. $END
 $ZMAT IFZMAT(1)=3, 14 , 5 , 1 , 2  FVALUE(1)= 110.0 $END
 $CONTRL COORD=UNIQUE NZVAR= 36 $END
 $CONTRL MULT=1 ICHARG=0 ICUT=11 RUNTYP=OPTIMIZE 
      SCFTYP=RHF MPLEVL=2 MAXIT=200 ISPHER=1 $END
 $BASIS  GBASIS=CCT $END
 $STATPT NSTEP=200 OPTTOL=0.00001 $END
 $SYSTEM MWORDS=300 MEMDDI=300 $END
 $SCF    DIRSCF=.T. FDIFF=.F. $END
 $TRANS  DIRTRF=.T. $END
 $DATA
 OPMMM 
 C1
 P 15.0 -0.0585378311 0.0363841126 -0.0218046042
 O 8.0 -0.403316492037 -1.07910644571 0.916539571837
 C 6.0 -0.224543454647 1.6831862145 0.786135990486
 C 6.0 -1.0266342739 0.152867071887 -1.48615197714
 C 6.0 1.652435871 0.0059507933 -0.6052671243
 H 1.0 -1.25977042332 1.81415658951 1.09558439291
 H 1.0 0.0511781313119 2.48113312209 0.0987805900454
 H 1.0 0.407737691654 1.73331245957 1.67062264154
 H 1.0 -0.90487807012 -0.77116283776 -2.0482494466
 H 1.0 -0.727439117003 0.995798395686 -2.10675519964
 H 1.0 -2.07628915731 0.256215931927 -1.21754609901
 H 1.0 2.1596696339 -0.851151005 -0.1662927129
 H 1.0 2.1553335643 0.9114595235 -0.2709695649
 H 1.0 1.7070381238 -0.0583748167 -1.6906617242
 $END
