 $ZMAT DLC=.T. AUTO=.T. $END
 $ZMAT IFZMAT(1)=3, 14 , 5 , 1 , 2  FVALUE(1)= 40.0 $END
 $CONTRL COORD=UNIQUE NZVAR= 36 $END
 $CONTRL MULT=1 ICHARG=0 ICUT=11 RUNTYP=OPTIMIZE 
      SCFTYP=RHF MPLEVL=2 MAXIT=200 ISPHER=1 $END
 $BASIS  GBASIS=CCT $END
 $STATPT NSTEP=200 OPTTOL=0.00001 $END
 $SYSTEM MWORDS=300 MEMDDI=300 $END
 $SCF    DIRSCF=.T. FDIFF=.F. $END
 $TRANS  DIRTRF=.T. $END
 $DATA
 OPMMM 
 C1
 P 15.0 -0.0585378311 0.0363841126 -0.0218046042
 O 8.0 -0.381900773359 1.12895774397 0.864167757027
 C 6.0 -1.05116276558 -0.0619571896452 -1.54685601726
 C 6.0 -0.307939239322 -1.63716138235 0.71475170949
 C 6.0 1.652435871 0.0059507933 -0.6052671243
 H 1.0 -2.10400888159 -0.127404802525 -1.27882972094
 H 1.0 -0.78397878564 -0.911278623518 -2.17332623175
 H 1.0 -0.894482328193 0.860680221088 -2.10255393265
 H 1.0 0.321955348203 -1.71733362526 1.59872831117
 H 1.0 -0.0626738440499 -2.4402446182 0.021858124231
 H 1.0 -1.34739933927 -1.73087801083 1.02353217044
 H 1.0 2.1596696339 -0.851151005 -0.1662927129
 H 1.0 2.1553335643 0.9114595235 -0.2709695649
 H 1.0 1.7070381238 -0.0583748167 -1.6906617242
 $END
