 $ZMAT DLC=.T. AUTO=.T. $END
 $ZMAT IFZMAT(1)=3, 14 , 5 , 1 , 2  FVALUE(1)= 155.0 $END
 $CONTRL COORD=UNIQUE NZVAR= 36 $END
 $CONTRL MULT=1 ICHARG=0 ICUT=11 RUNTYP=OPTIMIZE 
      SCFTYP=RHF MPLEVL=2 MAXIT=200 ISPHER=1 $END
 $BASIS  GBASIS=CCT $END
 $STATPT NSTEP=200 OPTTOL=0.00001 $END
 $SYSTEM MWORDS=300 MEMDDI=300 $END
 $SCF    DIRSCF=.T. FDIFF=.F. $END
 $TRANS  DIRTRF=.T. $END
 $DATA
 OPMMM 
 C1
 P 15.0 -0.0585378311 0.0363841126 -0.0218046042
 O 8.0 -0.518234827469 1.30045999364 0.455429653394
 C 6.0 -1.01706260058 -0.68294031861 -1.41446865605
 C 6.0 -0.13046300181 -1.33490583909 1.21942600394
 C 6.0 1.652435871 0.0059507933 -0.6052671243
 H 1.0 -2.0592105328 -0.773064986254 -1.11378333681
 H 1.0 -0.647493507437 -1.65574657622 -1.73425886441
 H 1.0 -0.958285646232 0.017254940101 -2.24566092841
 H 1.0 0.492805570728 -1.04979702856 2.06491915287
 H 1.0 0.212980019659 -2.28859781367 0.822288965934
 H 1.0 -1.15665435289 -1.43667073399 1.56753618198
 H 1.0 2.1596696339 -0.851151005 -0.1662927129
 H 1.0 2.1553335643 0.9114595235 -0.2709695649
 H 1.0 1.7070381238 -0.0583748167 -1.6906617242
 $END
