 $ZMAT DLC=.T. AUTO=.T. $END
 $ZMAT IFZMAT(1)=3, 14 , 5 , 1 , 2  FVALUE(1)= 90.0 $END
 $CONTRL COORD=UNIQUE NZVAR= 36 $END
 $CONTRL MULT=1 ICHARG=0 ICUT=11 RUNTYP=OPTIMIZE 
      SCFTYP=RHF MPLEVL=2 MAXIT=200 ISPHER=1 $END
 $BASIS  GBASIS=CCT $END
 $STATPT NSTEP=200 OPTTOL=0.00001 $END
 $SYSTEM MWORDS=300 MEMDDI=300 $END
 $SCF    DIRSCF=.T. FDIFF=.F. $END
 $TRANS  DIRTRF=.T. $END
 $DATA
 OPMMM 
 C1
 P 15.0 -0.0585378311 0.0363841126 -0.0218046042
 O 8.0 -0.992391488403 -0.701773137992 -0.830574076885
 C 6.0 0.0564394645927 -0.700113906437 1.73441647135
 C 6.0 -0.381279486033 1.7424201566 0.323406747926
 C 6.0 1.652435871 0.0059507933 -0.6052671243
 H 1.0 -0.929968910677 -0.643175219125 2.1908843592
 H 1.0 0.773320928879 -0.164510061402 2.35442340208
 H 1.0 0.345593221527 -1.74741606187 1.66994148103
 H 1.0 -0.370671935943 2.25004791954 -0.639303461022
 H 1.0 0.34838986527 2.20630015438 0.984918126324
 H 1.0 -1.3756006311 1.84326764713 0.754406426625
 H 1.0 2.1596696339 -0.851151005 -0.1662927129
 H 1.0 2.1553335643 0.9114595235 -0.2709695649
 H 1.0 1.7070381238 -0.0583748167 -1.6906617242
 $END
