 $ZMAT DLC=.T. AUTO=.T. $END
 $ZMAT IFZMAT(1)=3, 14 , 5 , 1 , 2  FVALUE(1)= 175.0 $END
 $CONTRL COORD=UNIQUE NZVAR= 36 $END
 $CONTRL MULT=1 ICHARG=0 ICUT=11 RUNTYP=OPTIMIZE 
      SCFTYP=RHF MPLEVL=2 MAXIT=200 ISPHER=1 $END
 $BASIS  GBASIS=CCT $END
 $STATPT NSTEP=200 OPTTOL=0.00001 $END
 $SYSTEM MWORDS=300 MEMDDI=300 $END
 $SCF    DIRSCF=.T. FDIFF=.F. $END
 $TRANS  DIRTRF=.T. $END
 $DATA
 OPMMM 
 C1
 P 15.0 -0.0585378311 0.0363841126 -0.0218046042
 O 8.0 -0.387389385629 -1.0453046156 0.96148189019
 C 6.0 -0.248309992308 1.71134479479 0.714973099018
 C 6.0 -1.02938410131 0.0755812987653 -1.4901844894
 C 6.0 1.652435871 0.0059507933 -0.6052671243
 H 1.0 -1.2851707017 1.84037329726 1.01973192895
 H 1.0 0.0156322964226 2.48357058254 -0.00558287226655
 H 1.0 0.383581782346 1.807633263 1.59591012306
 H 1.0 -0.894638706187 -0.869412991695 -2.01309832718
 H 1.0 -0.74258604558 0.895887798878 -2.14596146324
 H 1.0 -2.08029331278 0.175092966357 -1.22505671612
 H 1.0 2.1596696339 -0.851151005 -0.1662927129
 H 1.0 2.1553335643 0.9114595235 -0.2709695649
 H 1.0 1.7070381238 -0.0583748167 -1.6906617242
 $END
