 $ZMAT DLC=.T. AUTO=.T. $END
 $ZMAT IFZMAT(1)=3, 14 , 5 , 1 , 2  FVALUE(1)= 180.0 $END
 $CONTRL COORD=UNIQUE NZVAR= 36 $END
 $CONTRL MULT=1 ICHARG=0 ICUT=11 RUNTYP=OPTIMIZE 
      SCFTYP=RHF MPLEVL=2 MAXIT=200 ISPHER=1 $END
 $BASIS  GBASIS=CCT $END
 $STATPT NSTEP=200 OPTTOL=0.00001 $END
 $SYSTEM MWORDS=300 MEMDDI=300 $END
 $SCF    DIRSCF=.T. FDIFF=.F. $END
 $TRANS  DIRTRF=.T. $END
 $DATA
 OPMMM 
 C1
 P 15.0 -0.0585378311 0.0363841126 -0.0218046042
 O 8.0 -1.04869891764 0.0145050496677 -1.03305366963
 C 6.0 -0.166648924491 -1.48873600956 1.12135570674
 C 6.0 -0.0923772569323 1.36402486239 1.19033465478
 C 6.0 1.652435871 0.0059507933 -0.6052671243
 H 1.0 -1.15324175024 -1.4998321239 1.58083138833
 H 1.0 0.594697701987 -1.48544839079 1.89951996493
 H 1.0 -0.0597201617606 -2.38602786694 0.514690818441
 H 1.0 0.0619381632956 2.28278547216 0.627595723078
 H 1.0 0.666719870203 1.28351779974 1.96653661482
 H 1.0 -1.07767219757 1.40427277381 1.65096407686
 H 1.0 2.1596696339 -0.851151005 -0.1662927129
 H 1.0 2.1553335643 0.9114595235 -0.2709695649
 H 1.0 1.7070381238 -0.0583748167 -1.6906617242
 $END
