 $ZMAT DLC=.T. AUTO=.T. $END
 $ZMAT IFZMAT(1)=3, 14 , 5 , 1 , 2  FVALUE(1)= 75.0 $END
 $CONTRL COORD=UNIQUE NZVAR= 36 $END
 $CONTRL MULT=1 ICHARG=0 ICUT=11 RUNTYP=OPTIMIZE 
      SCFTYP=RHF MPLEVL=2 MAXIT=200 ISPHER=1 $END
 $BASIS  GBASIS=CCT $END
 $STATPT NSTEP=200 OPTTOL=0.00001 $END
 $SYSTEM MWORDS=300 MEMDDI=300 $END
 $SCF    DIRSCF=.T. FDIFF=.F. $END
 $TRANS  DIRTRF=.T. $END
 $DATA
 OPMMM 
 C1
 P 15.0 -0.0585378311 0.0363841126 -0.0218046042
 O 8.0 -0.198582654749 0.0656026321547 1.45720311712
 C 6.0 -0.791017176123 1.4596067273 -0.86335706399
 C 6.0 -0.824746883425 -1.3943183297 -0.813426669667
 C 6.0 1.652435871 0.0059507933 -0.6052671243
 H 1.0 -1.85230968966 1.50196893553 -0.625722736539
 H 1.0 -0.664314075857 1.39731550768 -1.94283158205
 H 1.0 -0.31975727998 2.3692720751 -0.495890344931
 H 1.0 -0.374884255387 -2.30145187117 -0.414250310038
 H 1.0 -0.697145780453 -1.37277951043 -1.89437687949
 H 1.0 -1.88662357739 -1.40331661021 -0.574800609351
 H 1.0 2.1596696339 -0.851151005 -0.1662927129
 H 1.0 2.1553335643 0.9114595235 -0.2709695649
 H 1.0 1.7070381238 -0.0583748167 -1.6906617242
 $END
