 $ZMAT DLC=.T. AUTO=.T. $END
 $ZMAT IFZMAT(1)=3, 14 , 5 , 1 , 2  FVALUE(1)= 130.0 $END
 $CONTRL COORD=UNIQUE NZVAR= 36 $END
 $CONTRL MULT=1 ICHARG=0 ICUT=11 RUNTYP=OPTIMIZE 
      SCFTYP=RHF MPLEVL=2 MAXIT=200 ISPHER=1 $END
 $BASIS  GBASIS=CCT $END
 $STATPT NSTEP=200 OPTTOL=0.00001 $END
 $SYSTEM MWORDS=300 MEMDDI=300 $END
 $SCF    DIRSCF=.T. FDIFF=.F. $END
 $TRANS  DIRTRF=.T. $END
 $DATA
 OPMMM 
 C1
 P 15.0 -0.0585378311 0.0363841126 -0.0218046042
 O 8.0 -0.43630526114 -1.13996820579 0.822976250899
 C 6.0 -0.178679505058 1.61731952267 0.924065250573
 C 6.0 -1.01788238464 0.305810297798 -1.46846501013
 C 6.0 1.652435871 0.0059507933 -0.6052671243
 H 1.0 -1.21058786418 1.75149199773 1.24307828302
 H 1.0 0.121470654701 2.4617178332 0.305922482618
 H 1.0 0.452398128984 1.57526186276 1.80983096303
 H 1.0 -0.920953863213 -0.57110794709 -2.10582571316
 H 1.0 -0.69316757116 1.18876755992 -2.01632090496
 H 1.0 -2.06488899218 0.41629495225 -1.19246540179
 H 1.0 2.1596696339 -0.851151005 -0.1662927129
 H 1.0 2.1553335643 0.9114595235 -0.2709695649
 H 1.0 1.7070381238 -0.0583748167 -1.6906617242
 $END
