 $ZMAT DLC=.T. AUTO=.T. $END
 $ZMAT IFZMAT(1)=3, 14 , 5 , 1 , 2  FVALUE(1)= 100.0 $END
 $CONTRL COORD=UNIQUE NZVAR= 36 $END
 $CONTRL MULT=1 ICHARG=0 ICUT=11 RUNTYP=OPTIMIZE 
      SCFTYP=RHF MPLEVL=2 MAXIT=200 ISPHER=1 $END
 $BASIS  GBASIS=CCT $END
 $STATPT NSTEP=200 OPTTOL=0.00001 $END
 $SYSTEM MWORDS=300 MEMDDI=300 $END
 $SCF    DIRSCF=.T. FDIFF=.F. $END
 $TRANS  DIRTRF=.T. $END
 $DATA
 OPMMM 
 C1
 P 15.0 -0.0585378311 0.0363841126 -0.0218046042
 O 8.0 -0.936776770091 -0.927171558427 -0.655730039664
 C 6.0 0.0996452472986 -0.31864314666 1.84121773862
 C 6.0 -0.505599174159 1.74030997753 -0.0410442492817
 C 6.0 1.652435871 0.0059507933 -0.6052671243
 H 1.0 -0.890018752466 -0.237708110792 2.28688702979
 H 1.0 0.774236023144 0.383245214025 2.32853603408
 H 1.0 0.462882846814 -1.33345485511 1.99229509301
 H 1.0 -0.527555722919 2.03625051492 -1.08820542147
 H 1.0 0.186698695378 2.38174826472 0.501615774938
 H 1.0 -1.50618700797 1.85823380757 0.370687988998
 H 1.0 2.1596696339 -0.851151005 -0.1662927129
 H 1.0 2.1553335643 0.9114595235 -0.2709695649
 H 1.0 1.7070381238 -0.0583748167 -1.6906617242
 $END
