 $ZMAT DLC=.T. AUTO=.T. $END
 $ZMAT IFZMAT(1)=3, 14 , 5 , 1 , 2  FVALUE(1)= 170.0 $END
 $CONTRL COORD=UNIQUE NZVAR= 36 $END
 $CONTRL MULT=1 ICHARG=0 ICUT=11 RUNTYP=OPTIMIZE 
      SCFTYP=RHF MPLEVL=2 MAXIT=200 ISPHER=1 $END
 $BASIS  GBASIS=CCT $END
 $STATPT NSTEP=200 OPTTOL=0.00001 $END
 $SYSTEM MWORDS=300 MEMDDI=300 $END
 $SCF    DIRSCF=.T. FDIFF=.F. $END
 $TRANS  DIRTRF=.T. $END
 $DATA
 OPMMM 
 C1
 P 15.0 -0.0585378311 0.0363841126 -0.0218046042
 O 8.0 -0.199143029422 0.00765079928222 1.45858260642
 C 6.0 -0.769323313079 1.50541490839 -0.802130279181
 C 6.0 -0.843610913316 -1.34734348159 -0.871194664097
 C 6.0 1.652435871 0.0059507933 -0.6052671243
 H 1.0 -1.83015355059 1.55293232795 -0.563409246248
 H 1.0 -0.642397402523 1.48635707814 -1.88320646481
 H 1.0 -0.285580272752 2.39218429025 -0.396863134384
 H 1.0 -0.407084085314 -2.27662819758 -0.509969447219
 H 1.0 -0.714595650142 -1.28260384529 -1.95025127044
 H 1.0 -1.90575532788 -1.35116976131 -0.633623451393
 H 1.0 2.1596696339 -0.851151005 -0.1662927129
 H 1.0 2.1553335643 0.9114595235 -0.2709695649
 H 1.0 1.7070381238 -0.0583748167 -1.6906617242
 $END
