 $ZMAT DLC=.T. AUTO=.T. $END
 $ZMAT IFZMAT(1)=3, 14 , 5 , 1 , 2  FVALUE(1)= 0.0 $END
 $CONTRL COORD=UNIQUE NZVAR= 36 $END
 $CONTRL MULT=1 ICHARG=0 ICUT=11 RUNTYP=OPTIMIZE 
      SCFTYP=RHF MPLEVL=2 MAXIT=200 ISPHER=1 $END
 $BASIS  GBASIS=CCT $END
 $STATPT NSTEP=200 OPTTOL=0.00001 $END
 $SYSTEM MWORDS=300 MEMDDI=300 $END
 $SCF    DIRSCF=.T. FDIFF=.F. $END
 $TRANS  DIRTRF=.T. $END
 $DATA
 OPMMM 
 C1
 P 15.0 -0.0585378311 0.0363841126 -0.0218046042
 O 8.0 -1.04899163162 -0.101450852558 -1.02786379543
 C 6.0 -0.123831866435 -1.39416378344 1.24198164441
 C 6.0 -0.130852737828 1.4553673915 1.07274288157
 C 6.0 1.652435871 0.0059507933 -0.6052671243
 H 1.0 -1.10957217214 -1.39488826377 1.70341631409
 H 1.0 0.637341876937 -1.30439719388 2.01512820141
 H 1.0 0.0084404612605 -2.33552577649 0.711934143075
 H 1.0 -0.00294419121785 2.32800605083 0.434972871154
 H 1.0 0.630459373665 1.46143756304 1.85092431301
 H 1.0 -1.1167582727 1.50592038929 1.53104425581
 H 1.0 2.1596696339 -0.851151005 -0.1662927129
 H 1.0 2.1553335643 0.9114595235 -0.2709695649
 H 1.0 1.7070381238 -0.0583748167 -1.6906617242
 $END
