 $ZMAT DLC=.T. AUTO=.T. $END
 $ZMAT IFZMAT(1)=3, 14 , 5 , 1 , 2  FVALUE(1)= 35.0 $END
 $CONTRL COORD=UNIQUE NZVAR= 36 $END
 $CONTRL MULT=1 ICHARG=0 ICUT=11 RUNTYP=OPTIMIZE 
      SCFTYP=RHF MPLEVL=2 MAXIT=200 ISPHER=1 $END
 $BASIS  GBASIS=CCT $END
 $STATPT NSTEP=200 OPTTOL=0.00001 $END
 $SYSTEM MWORDS=300 MEMDDI=300 $END
 $SCF    DIRSCF=.T. FDIFF=.F. $END
 $TRANS  DIRTRF=.T. $END
 $DATA
 OPMMM 
 C1
 P 15.0 -0.0585378311 0.0363841126 -0.0218046042
 O 8.0 -0.52470294689 -1.25196896613 0.56959654672
 C 6.0 -0.0745529739315 1.39870223297 1.24081397026
 C 6.0 -0.977365888801 0.675811491321 -1.3689516868
 C 6.0 1.652435871 0.0059507933 -0.6052671243
 H 1.0 -1.09793300318 1.53687695777 1.58462713277
 H 1.0 0.29122918381 2.32947758234 0.810628232598
 H 1.0 0.542077210978 1.12877043843 2.09609916578
 H 1.0 -0.935375468573 -0.0542650692783 -2.1750747745
 H 1.0 -0.585148029743 1.62785919635 -1.7224621346
 H 1.0 -2.01699543084 0.800884145143 -1.07208012284
 H 1.0 2.1596696339 -0.851151005 -0.1662927129
 H 1.0 2.1553335643 0.9114595235 -0.2709695649
 H 1.0 1.7070381238 -0.0583748167 -1.6906617242
 $END
